Water Network: 9
Results smooth approximation 1 of Hazen--Williams headloss constraint using relative error

*******************************************************************************
wdnmodel.mod

-------------------------------- Solving with gurobi --------------------------
Gurobi 12.0.3: Set parameter LogToConsole to value 1
  tech:outlev = 1
  tech:outlev_mp = 1
Set parameter Presolve to value 1
  pre:solve = 1
Set parameter Aggregate to value 1
  pre:aggregate = 1
Set parameter TimeLimit to value 600
  lim:time = 600
Set parameter NumericFocus to value 1
  alg:numericfocus = 1
Set parameter OBBT to value 0
  mip:obbt = 0
Set parameter ScaleFlag to value 1
  pre:scale = 1
Set parameter Method to value 2
  alg:method = 2
Set parameter NodeMethod to value 1
  mip:nodemethod = 1
Set parameter NonConvex to value 2
  qp:nonconvex = 2
Set parameter MIPFocus to value 1
  mip:focus = 1
Set parameter NLPHeur to value 1
  alg:nlpheur = 1
Set parameter VarBranch to value 0
  mip:varbranch = 0
Set parameter MIPGapAbs to value 1e-05
  mip:gapabs = 1.0000000000000001e-05
Set parameter MIPGap to value 1e-06
  mip:gap = 9.9999999999999995e-07
Set parameter FeasibilityTol to value 1e-05
  alg:feastol = 1.0000000000000001e-05
  cvt:pre:feastol = 1.0000000000000001e-05
  cvt:pre:feastolrel = 9.9999999999999995e-07
  sol:chk:feastol = 1.0000000000000001e-05
  sol:chk:feastolrel = 9.9999999999999995e-07

AMPL MP initial flat model has 500 variables (0 integer, 0 binary);
Objectives: 1 linear; 
Constraints:  94 linear; 174 quadratic;
Algebraic expressions:  58 powconstexp;

AMPL MP final model has 732 variables (0 integer, 0 binary);
Objectives: 1 linear; 
Constraints:  152 linear; 174 quadratic;
Algebraic expressions:  58 powconstexp;


Set parameter InfUnbdInfo to value 1
Gurobi Optimizer version 12.0.3 build v12.0.3rc0 (linux64 - "Debian GNU/Linux 12 (bookworm)")

CPU model: INTEL(R) XEON(R) GOLD 6530, instruction set [SSE2|AVX|AVX2|AVX512]
Thread count: 32 physical cores, 64 logical processors, using up to 32 threads

Non-default parameters:
TimeLimit  600
FeasibilityTol  1e-05
MIPGap  1e-06
MIPGapAbs  1e-05
Method  2
ScaleFlag  1
MIPFocus  1
NodeMethod  1
OBBT  0
VarBranch  0
InfUnbdInfo  1
NonConvex  2
NumericFocus  1
Presolve  1

Optimize a model with 152 rows, 732 columns and 694 nonzeros
Model fingerprint: 0xf7c9f69f
Model has 58 general nonlinear constraints (1624 nonlinear terms)
Variable types: 732 continuous, 0 integer (0 binary)
Coefficient statistics:
  Matrix range     [1e+00, 1e+00]
  Objective range  [7e+03, 1e+05]
  Bounds range     [8e-13, 2e+03]
  RHS range        [3e-04, 4e+02]
Presolve model has 58 nlconstr
Added 986 variables to disaggregate expressions.
Presolve removed 1 rows and 175 columns
Presolve time: 0.02s
Presolved: 2993 rows, 1602 columns, 6782 nonzeros
Presolved model has 522 bilinear constraint(s)
Presolved model has 58 nonlinear constraint(s)

Solving non-convex MINLP

Variable types: 1602 continuous, 0 integer (0 binary)
  NLP heuristic elapsed time = 5.02s
Root barrier log...

Ordering time: 0.01s

Barrier statistics:
 AA' NZ     : 1.536e+04
 Factor NZ  : 3.098e+04 (roughly 2 MB of memory)
 Factor Ops : 5.648e+05 (less than 1 second per iteration)
 Threads    : 1

                  Objective                Residual
Iter       Primal          Dual         Primal    Dual     Compl     Time
   0   5.10432443e+09 -2.46027755e+09  1.84e+03 0.00e+00  5.18e+06     6s
   1   7.62915686e+08 -5.48273270e+08  2.90e+02 2.91e-11  8.14e+05     6s
   2   1.58027046e+08 -4.37359159e+07  2.39e+01 2.91e-11  8.46e+04     6s
   3   6.91314965e+07  2.87841026e+07  1.25e+00 1.07e+00  1.17e+04     6s
   4   5.90285027e+07  4.82763664e+07  5.64e-02 1.82e-11  2.76e+03     6s
   5   5.81772120e+07  5.60455709e+07  8.22e-03 1.46e-11  5.44e+02     6s
   6   5.80828622e+07  5.75382041e+07  5.17e-03 5.82e-11  1.42e+02     6s
   7   5.80151283e+07  5.76912260e+07  2.99e-03 4.64e-11  8.43e+01     6s
   8   5.79943081e+07  5.77821623e+07  2.35e-03 2.88e-11  5.56e+01     6s
   9   5.79445008e+07  5.78284751e+07  8.26e-04 5.28e-11  2.99e+01     6s
  10   5.79197861e+07  5.79097771e+07  9.69e-05 1.64e-10  2.58e+00     6s
  11   5.79172653e+07  5.79162859e+07  2.50e-05 5.09e-11  2.65e-01     6s
  12   5.79163756e+07  5.79163753e+07  4.82e-09 2.91e-11  8.85e-05     6s
  13   5.79163754e+07  5.79163754e+07  4.09e-12 2.91e-11  5.37e-08     6s
  14   5.79163754e+07  5.79163754e+07  4.35e-11 5.32e-11  4.29e-11     6s

Barrier solved model in 14 iterations and 5.93 seconds (0.12 work units)
Optimal objective 5.79163754e+07


Root crossover log...

     479 DPushes remaining with DInf 0.0000000e+00                 6s
       0 DPushes remaining with DInf 0.0000000e+00                 6s

     113 PPushes remaining with PInf 0.0000000e+00                 6s
       0 PPushes remaining with PInf 0.0000000e+00                 6s

  Push phase complete: Pinf 0.0000000e+00, Dinf 0.0000000e+00      6s


Root simplex log...

Iteration    Objective       Primal Inf.    Dual Inf.      Time
     178    5.7916375e+07   0.000000e+00   0.000000e+00      6s
     178    5.7916375e+07   0.000000e+00   0.000000e+00      6s

Root relaxation: objective 5.791638e+07, 178 iterations, 0.34 seconds (0.02 work units)

    Nodes    |    Current Node    |     Objective Bounds      |     Work
 Expl Unexpl |  Obj  Depth IntInf | Incumbent    BestBd   Gap | It/Node Time

     0     0 5.7916e+07    0  124          - 5.7916e+07      -     -    5s
     0     0 5.7916e+07    0  124          - 5.7916e+07      -     -    6s
     0     2 5.7916e+07    0  124          - 5.7916e+07      -     -   13s
    95   359 5.7916e+07    7  130          - 5.7916e+07      -  37.8   15s
  3946  4231 6.5904e+07   79  124          - 5.7916e+07      -  46.3   20s
  8320  7953 5.8693e+07  111  121          - 5.7916e+07      -  72.1   25s
 11162  9221 5.7916e+07   11    0          - 5.7916e+07      -  75.8   30s
 11165  9223 8.6679e+07   55    0          - 5.7916e+07      -  75.8   50s
 11166  9226 5.7916e+07   12  103          - 5.7916e+07      -  75.8   58s
 11260  9473 6.0484e+07   18   93          - 5.7916e+07      -  75.9   60s
 14823 11370 6.9733e+07   78  121          - 5.7916e+07      -  66.2   72s
 18292 13699 6.1583e+07   25  139          - 5.7916e+07      -  60.3   75s
 25058 17061 infeasible   42               - 5.7916e+07      -  54.8   80s
 30369 20137 5.9566e+07   55  142          - 5.7916e+07      -  51.7   85s
 38430 22952 6.0731e+07  142  130          - 5.7916e+07      -  49.0   90s
 46479 29038 6.0427e+07   48  125          - 5.7916e+07      -  45.7   95s
 53361 34012 5.9244e+07  142  108          - 5.7916e+07      -  44.1  101s
 59844 40385 5.7917e+07   52   96          - 5.7916e+07      -  42.5  106s
 67594 45657 5.8643e+07  168   91          - 5.7916e+07      -  40.4  110s
 74462 50915 infeasible  100               - 5.7916e+07      -  39.4  115s
 82425 57299 5.8145e+07   34  118          - 5.7916e+07      -  38.3  121s
 87780 62450 5.8146e+07   82  115          - 5.7916e+07      -  38.0  126s
 95637 69291 5.7917e+07  112   91          - 5.7916e+07      -  36.8  131s
 102293 74473 5.7916e+07   47  111          - 5.7916e+07      -  35.7  136s
 108936 80112 6.9826e+07  126   97          - 5.7916e+07      -  35.0  140s
 118850 88070 infeasible  180               - 5.7916e+07      -  33.8  147s
 122646 91975 5.7931e+07   72  118          - 5.7916e+07      -  33.3  150s
 133965 99990 5.7920e+07   68   90          - 5.7916e+07      -  32.1  156s
 140627 105033 infeasible   31               - 5.7916e+07      -  31.4  162s
 147911 110322 5.8307e+07  127  107          - 5.7916e+07      -  30.7  166s
 154362 115898 5.8310e+07  137   98          - 5.7916e+07      -  30.3  172s
 162125 120919 5.7917e+07  113  120          - 5.7916e+07      -  29.7  176s
 165323 123730 5.7918e+07   85   96          - 5.7916e+07      -  29.5  180s
 176133 132544 5.9688e+07  170   94          - 5.7916e+07      -  28.7  187s
 183479 138397 5.9163e+07   25  155          - 5.7916e+07      -  28.2  192s
 191048 143378 6.0079e+07   43  134          - 5.7916e+07      -  27.8  196s
 197811 148565 6.0286e+07   97  102          - 5.7916e+07      -  27.5  200s
 208666 156071 infeasible  107               - 5.7916e+07      -  26.8  207s
 215377 162143 6.0149e+07  160   97          - 5.7916e+07      -  26.5  211s
 222948 167840 5.7916e+07  130   95          - 5.7916e+07      -  26.2  216s
 230436 173405 5.9386e+07  169   80          - 5.7916e+07      -  25.8  221s
 237469 178216 5.8233e+07   97  103          - 5.7916e+07      -  25.5  225s
 246922 185335 6.0530e+07  170   98          - 5.7916e+07      -  25.2  232s
 254116 188336 5.7916e+07   94   87          - 5.7916e+07      -  25.1  246s
 259251 194565 6.0195e+07   96  119          - 5.7916e+07      -  25.0  252s
 267641 200747 6.4547e+07  145  122          - 5.7916e+07      -  24.8  257s
 275414 206998 6.1736e+07  113  108          - 5.7916e+07      -  24.5  261s
 284136 213163 6.6766e+07  173  124          - 5.7916e+07      -  24.1  265s
 294061 220376 7.1443e+07  205  149          - 5.7916e+07      -  23.7  270s
 303403 227852 infeasible  236               - 5.7916e+07      -  23.4  276s
 310025 233597 infeasible  242               - 5.7916e+07      -  23.3  280s
 320987 241612 5.9845e+07  156   80          - 5.7916e+07      -  23.0  286s
 327771 246358 5.8034e+07  138   89          - 5.7916e+07      -  22.8  290s
 338164 253757 5.9520e+07  101   91          - 5.7916e+07      -  22.6  296s
 345839 259413 5.9923e+07  157   94          - 5.7916e+07      -  22.4  301s
 352171 264215 5.8999e+07   97   97          - 5.7916e+07      -  22.3  305s
 362954 272538 6.9306e+07   97  103          - 5.7916e+07      -  22.0  310s
 374070 281429 infeasible  102               - 5.7916e+07      -  21.6  317s
 382155 285544 6.0541e+07  136  113          - 5.7916e+07      -  21.4  320s
 391320 291098 5.8434e+07   98  122          - 5.7916e+07      -  21.2  334s
 393244 294382 5.8730e+07  106  122          - 5.7916e+07      -  21.2  336s
 401382 299946 5.9352e+07  128  122          - 5.7916e+07      -  21.0  340s
 413127 307620 5.9847e+07  175  121          - 5.7916e+07      -  20.7  346s
 419209 311733 5.7916e+07  118  107          - 5.7916e+07      -  20.6  350s
 429040 319591 infeasible  145               - 5.7916e+07      -  20.4  356s
 436062 324711 6.9076e+07   86  109          - 5.7916e+07      -  20.3  360s
 447174 332137 7.3774e+07  119  103          - 5.7916e+07      -  20.2  366s
 457263 339225 7.4525e+07  121  111          - 5.7916e+07      -  20.0  371s
 464296 343721 5.8069e+07  147   90          - 5.7916e+07      -  19.9  376s
 471523 349225 6.3980e+07  105  113          - 5.7916e+07      -  19.8  381s
 478680 353794 6.4171e+07  176  114          - 5.7916e+07      -  19.7  385s
 489007 361950 7.2260e+07  140  125          - 5.7916e+07      -  19.6  391s
 496454 366102 7.2399e+07  192  124          - 5.7916e+07      -  19.5  395s
 506690 373705 5.7954e+07   95   99          - 5.7916e+07      -  19.5  401s
 513949 377346 5.7916e+07   98  106          - 5.7916e+07      -  19.4  414s
 514876 380509 infeasible  107               - 5.7916e+07      -  19.4  416s
 523054 386626 6.5971e+07  143  100          - 5.7916e+07      -  19.2  420s
 535063 394410 5.7918e+07  122   94          - 5.7916e+07      -  19.1  426s
 544246 401483 7.0883e+07  104   92          - 5.7916e+07      -  19.0  431s
 551213 406528 6.2959e+07   77  108          - 5.7916e+07      -  18.9  435s
 560887 413769 6.3740e+07  172   93          - 5.7916e+07      -  18.8  440s
 571497 421636 infeasible  235               - 5.7916e+07      -  18.8  446s
 579314 427653 6.7820e+07  264   91          - 5.7916e+07      -  18.6  450s
 590192 435119 7.0196e+07  342   94          - 5.7916e+07      -  18.5  456s
 601223 442505 infeasible  388               - 5.7916e+07      -  18.4  461s
 611999 450081 5.8192e+07   85  103          - 5.7916e+07      -  18.2  465s
 620918 457266 5.8098e+07   98   87          - 5.7916e+07      -  18.2  471s
 628175 462010 6.0671e+07  119   96          - 5.7916e+07      -  18.2  475s
 638465 467659 5.9397e+07  131  106          - 5.7916e+07      -  18.1  489s
 640345 470449 6.1390e+07  168  102          - 5.7916e+07      -  18.1  491s
 648326 475432 5.7916e+07  104  104          - 5.7916e+07      -  18.1  495s
 659315 483232 6.3028e+07  151   95          - 5.7916e+07      -  18.0  500s
 670003 490928 6.5719e+07  156  112          - 5.7916e+07      -  17.9  506s
 680129 497737 6.6609e+07  220  105          - 5.7916e+07      -  17.8  510s
 691162 505092 6.8247e+07  271  113          - 5.7916e+07      -  17.7  516s
 700713 511516 7.0166e+07  317  107          - 5.7916e+07      -  17.7  521s
 707248 516290 7.0854e+07  353  100          - 5.7916e+07      -  17.6  525s
 718148 523745 infeasible  421               - 5.7916e+07      -  17.6  532s
 724541 528159 5.7917e+07   91   91          - 5.7916e+07      -  17.5  535s
 734125 534738 5.7916e+07  105  101          - 5.7916e+07      -  17.5  541s
 740844 538899 5.9037e+07  126   94          - 5.7916e+07      -  17.5  545s
 744275 539543 5.9358e+07   90  100          - 5.7916e+07      -  17.4  556s
 745445 554345 5.9387e+07  103  101          - 5.7916e+07      -  17.5  576s
 768129 559196 6.0299e+07   90   96          - 5.7916e+07      -  17.4  581s
 774847 563493 5.7920e+07  128   97          - 5.7916e+07      -  17.4  586s
 781568 568275 infeasible  120               - 5.7916e+07      -  17.4  590s
 792354 575556 5.7986e+07  129   93          - 5.7916e+07      -  17.3  596s
 799441 580045 5.9258e+07  141  103          - 5.7916e+07      -  17.3  600s

Explored 802223 nodes (13885943 simplex iterations) in 600.13 seconds (75.69 work units)
Thread count was 32 (of 64 available processors)

Solution count 0

Time limit reached
Best objective -, best bound 5.791637540000e+07, gap -
Gurobi 12.0.3: time limit, without a feasible solution
1.38859e+07 simplex iterations
38 barrier iterations
802223 branching nodes
eps [*,*]
:         1             2             3             4             5         :=
2     .             .            1.63748e-06    .             .
3     .             .             .            9.75081e-07    .
4     .             .             .             .            1.01734e-06
12    .             .             .            2.54334e-06    .
17    .            8.84399e-07    .             .             .
36   1.20671e-06    .             .             .             .
37   2.16983e-05    .             .             .             .

:         6             7             8             9            10         :=
5    9.375e-07      .             .             .             .
6     .            1.52982e-06    .             .             .
18    .             .             .             .            1.98347e-06
21   1.20872e-06    .             .             .             .
22    .            9.30589e-07    .             .             .
24    .             .            1.55016e-06    .             .
25    .             .            1.46316e-06    .             .
28    .             .             .            1.33113e-06    .
30    .             .             .            1.6063e-06     .
31    .             .             .             .            1.30838e-06

:        11            12           13            14            15         :=
3    1.25035e-06    .            .             .             .
5     .             .           2.07269e-06    .             .
10   1.46601e-06    .            .             .             .
12    .             .           1.22863e-06    .             .
13    .             .            .            1.69462e-06    .
19    .            1.8083e-06    .             .             .
20    .             .            .             .            1.724e-06
26    .             .            .             .            1.68309e-06

:        16            17           18            19            20         :=
1     .            1.5487e-06    .             .             .
2     .             .           1.38639e-06    .             .
11    .             .            .            1.38768e-06    .
14    .             .            .             .            3.07221e-06
15   1.30296e-06    .            .             .             .
17    .             .           1.1388e-06     .             .
19    .             .            .             .            1.10503e-06
27   1.81194e-06    .            .             .             .

:        21            22            23            24            25         :=
7     .             .             .            1.23707e-06    .
14   2.27388e-06    .             .             .             .
15    .            2.02472e-06    .             .             .
16    .             .             .             .            2.00511e-06
21    .            1.46274e-06    .             .             .
22    .             .            1.7688e-06     .             .
23    .             .             .             .            2.10689e-06
24    .             .            1.20606e-06    .             .

:        26            27            28            29            30         :=
8     .             .            1.47855e-06    .             .
11   1.99194e-06    .             .             .             .
16    .             .             .            1.52855e-06    .
26    .            1.3128e-06     .             .             .
28    .             .             .            1.45487e-06    .
29    .             .             .             .            2.45183e-06
32    .            2.05681e-06    .             .             .

:        31            32            33            34            35         :=
1    2.10191e-06    .             .             .             .
10    .            2.62922e-06    .             .             .
29    .             .            1.19359e-06    .             .
30    .             .             .             .            1.63578e-06
31    .             .             .            2.37956e-06    .
32    .             .            1.47977e-06    .             .
33    .             .             .            3.19431e-06    .
34    .             .             .             .            1.37415e-06

:        36         :=
9    1.69626e-06
35   1.99362e-06
;

*******************************************************************************

Constraints violation:


Sum of constraints violation: 12281.053909999997
*******************************************************************************

*******************************************************************************

Absolute and relative violations between original and approximation constraint 2:

+-----------------+--------------+--------------------------+------------------------+----------------------+----------------------+
| Constraint ID   |   flow value |   Original Con Violation |   Approx Con Violation |   Absolute Violation |   Relative Violation |
+=================+==============+==========================+========================+======================+======================+
| 1,17            |            0 |                        0 |                      0 |                    0 |                    0 |
+-----------------+--------------+--------------------------+------------------------+----------------------+----------------------+
| 1,31            |            0 |                        0 |                      0 |                    0 |                    0 |
+-----------------+--------------+--------------------------+------------------------+----------------------+----------------------+
| 2,3             |            0 |                        0 |                      0 |                    0 |                    0 |
+-----------------+--------------+--------------------------+------------------------+----------------------+----------------------+
| 2,18            |            0 |                        0 |                      0 |                    0 |                    0 |
+-----------------+--------------+--------------------------+------------------------+----------------------+----------------------+
| 3,4             |            0 |                        0 |                      0 |                    0 |                    0 |
+-----------------+--------------+--------------------------+------------------------+----------------------+----------------------+
| 3,11            |            0 |                        0 |                      0 |                    0 |                    0 |
+-----------------+--------------+--------------------------+------------------------+----------------------+----------------------+
| 4,5             |            0 |                        0 |                      0 |                    0 |                    0 |
+-----------------+--------------+--------------------------+------------------------+----------------------+----------------------+
| 5,6             |            0 |                        0 |                      0 |                    0 |                    0 |
+-----------------+--------------+--------------------------+------------------------+----------------------+----------------------+
| 5,13            |            0 |                        0 |                      0 |                    0 |                    0 |
+-----------------+--------------+--------------------------+------------------------+----------------------+----------------------+
| 6,7             |            0 |                        0 |                      0 |                    0 |                    0 |
+-----------------+--------------+--------------------------+------------------------+----------------------+----------------------+
| 7,24            |            0 |                        0 |                      0 |                    0 |                    0 |
+-----------------+--------------+--------------------------+------------------------+----------------------+----------------------+
| 8,28            |            0 |                        0 |                      0 |                    0 |                    0 |
+-----------------+--------------+--------------------------+------------------------+----------------------+----------------------+
| 9,36            |            0 |                        0 |                      0 |                    0 |                    0 |
+-----------------+--------------+--------------------------+------------------------+----------------------+----------------------+
| 10,11           |            0 |                        0 |                      0 |                    0 |                    0 |
+-----------------+--------------+--------------------------+------------------------+----------------------+----------------------+
| 10,32           |            0 |                        0 |                      0 |                    0 |                    0 |
+-----------------+--------------+--------------------------+------------------------+----------------------+----------------------+
| 11,19           |            0 |                        0 |                      0 |                    0 |                    0 |
+-----------------+--------------+--------------------------+------------------------+----------------------+----------------------+
| 11,26           |            0 |                        0 |                      0 |                    0 |                    0 |
+-----------------+--------------+--------------------------+------------------------+----------------------+----------------------+
| 12,4            |            0 |                        0 |                      0 |                    0 |                    0 |
+-----------------+--------------+--------------------------+------------------------+----------------------+----------------------+
| 12,13           |            0 |                        0 |                      0 |                    0 |                    0 |
+-----------------+--------------+--------------------------+------------------------+----------------------+----------------------+
| 13,14           |            0 |                        0 |                      0 |                    0 |                    0 |
+-----------------+--------------+--------------------------+------------------------+----------------------+----------------------+
| 14,20           |            0 |                        0 |                      0 |                    0 |                    0 |
+-----------------+--------------+--------------------------+------------------------+----------------------+----------------------+
| 14,21           |            0 |                        0 |                      0 |                    0 |                    0 |
+-----------------+--------------+--------------------------+------------------------+----------------------+----------------------+
| 15,16           |            0 |                        0 |                      0 |                    0 |                    0 |
+-----------------+--------------+--------------------------+------------------------+----------------------+----------------------+
| 15,22           |            0 |                        0 |                      0 |                    0 |                    0 |
+-----------------+--------------+--------------------------+------------------------+----------------------+----------------------+
| 16,25           |            0 |                        0 |                      0 |                    0 |                    0 |
+-----------------+--------------+--------------------------+------------------------+----------------------+----------------------+
| 16,29           |            0 |                        0 |                      0 |                    0 |                    0 |
+-----------------+--------------+--------------------------+------------------------+----------------------+----------------------+
| 17,2            |            0 |                        0 |                      0 |                    0 |                    0 |
+-----------------+--------------+--------------------------+------------------------+----------------------+----------------------+
| 17,18           |            0 |                        0 |                      0 |                    0 |                    0 |
+-----------------+--------------+--------------------------+------------------------+----------------------+----------------------+
| 18,10           |            0 |                        0 |                      0 |                    0 |                    0 |
+-----------------+--------------+--------------------------+------------------------+----------------------+----------------------+
| 19,12           |            0 |                        0 |                      0 |                    0 |                    0 |
+-----------------+--------------+--------------------------+------------------------+----------------------+----------------------+
| 19,20           |            0 |                        0 |                      0 |                    0 |                    0 |
+-----------------+--------------+--------------------------+------------------------+----------------------+----------------------+
| 20,15           |            0 |                        0 |                      0 |                    0 |                    0 |
+-----------------+--------------+--------------------------+------------------------+----------------------+----------------------+
| 21,6            |            0 |                        0 |                      0 |                    0 |                    0 |
+-----------------+--------------+--------------------------+------------------------+----------------------+----------------------+
| 21,22           |            0 |                        0 |                      0 |                    0 |                    0 |
+-----------------+--------------+--------------------------+------------------------+----------------------+----------------------+
| 22,7            |            0 |                        0 |                      0 |                    0 |                    0 |
+-----------------+--------------+--------------------------+------------------------+----------------------+----------------------+
| 22,23           |            0 |                        0 |                      0 |                    0 |                    0 |
+-----------------+--------------+--------------------------+------------------------+----------------------+----------------------+
| 23,25           |            0 |                        0 |                      0 |                    0 |                    0 |
+-----------------+--------------+--------------------------+------------------------+----------------------+----------------------+
| 24,8            |            0 |                        0 |                      0 |                    0 |                    0 |
+-----------------+--------------+--------------------------+------------------------+----------------------+----------------------+
| 24,23           |            0 |                        0 |                      0 |                    0 |                    0 |
+-----------------+--------------+--------------------------+------------------------+----------------------+----------------------+
| 25,8            |            0 |                        0 |                      0 |                    0 |                    0 |
+-----------------+--------------+--------------------------+------------------------+----------------------+----------------------+
| 26,15           |            0 |                        0 |                      0 |                    0 |                    0 |
+-----------------+--------------+--------------------------+------------------------+----------------------+----------------------+
| 26,27           |            0 |                        0 |                      0 |                    0 |                    0 |
+-----------------+--------------+--------------------------+------------------------+----------------------+----------------------+
| 27,16           |            0 |                        0 |                      0 |                    0 |                    0 |
+-----------------+--------------+--------------------------+------------------------+----------------------+----------------------+
| 28,9            |            0 |                        0 |                      0 |                    0 |                    0 |
+-----------------+--------------+--------------------------+------------------------+----------------------+----------------------+
| 28,29           |            0 |                        0 |                      0 |                    0 |                    0 |
+-----------------+--------------+--------------------------+------------------------+----------------------+----------------------+
| 29,30           |            0 |                        0 |                      0 |                    0 |                    0 |
+-----------------+--------------+--------------------------+------------------------+----------------------+----------------------+
| 29,33           |            0 |                        0 |                      0 |                    0 |                    0 |
+-----------------+--------------+--------------------------+------------------------+----------------------+----------------------+
| 30,9            |            0 |                        0 |                      0 |                    0 |                    0 |
+-----------------+--------------+--------------------------+------------------------+----------------------+----------------------+
| 30,35           |            0 |                        0 |                      0 |                    0 |                    0 |
+-----------------+--------------+--------------------------+------------------------+----------------------+----------------------+
| 31,10           |            0 |                        0 |                      0 |                    0 |                    0 |
+-----------------+--------------+--------------------------+------------------------+----------------------+----------------------+
| 31,34           |            0 |                        0 |                      0 |                    0 |                    0 |
+-----------------+--------------+--------------------------+------------------------+----------------------+----------------------+
| 32,27           |            0 |                        0 |                      0 |                    0 |                    0 |
+-----------------+--------------+--------------------------+------------------------+----------------------+----------------------+
| 32,33           |            0 |                        0 |                      0 |                    0 |                    0 |
+-----------------+--------------+--------------------------+------------------------+----------------------+----------------------+
| 33,34           |            0 |                        0 |                      0 |                    0 |                    0 |
+-----------------+--------------+--------------------------+------------------------+----------------------+----------------------+
| 34,35           |            0 |                        0 |                      0 |                    0 |                    0 |
+-----------------+--------------+--------------------------+------------------------+----------------------+----------------------+
| 35,36           |            0 |                        0 |                      0 |                    0 |                    0 |
+-----------------+--------------+--------------------------+------------------------+----------------------+----------------------+
| 36,1            |            0 |                        0 |                      0 |                    0 |                    0 |
+-----------------+--------------+--------------------------+------------------------+----------------------+----------------------+
| 37,1            |            0 |                      121 |                    121 |                    0 |                    0 |
+-----------------+--------------+--------------------------+------------------------+----------------------+----------------------+

Sum of violation of original headloss constraint: 121.0
Sum of violation of approx headloss constraint: 121.0

Con2 sum of absolute violation between original function and approximate function: 0.0
Con2 sum of relative violation between original function and approximate function: 0.0
*******************************************************************************

Total cost using gurobi: 0.0
gurobi solve time: 601.07 seconds
*******************************************************************************

